c FILE: DSJC500.5
c
c SOURCE: David Johnson (dsj@research.att.com)
c
c DESCRIPTION: Random graph used in the paper
c              "Optimization by Simulated Annealing: An
c               Experimental Evaluation; Part II, Graph
c               Coloring and Number Partitioning" by
c              David S. Johnson, Cecilia R. Aragon, 
c              Lyle A. McGeoch and Catherine Schevon
c              Operations Research, 39, 378-406 (1991)
c
p edge 500 125248
e 2 1
e 3 1
e 4 2
e 4 3
e 5 1
e 5 2
e 6 2
e 6 3
e 6 4
e 6 5
e 7 2
e 7 5
e 8 4
e 8 6
e 8 7
e 9 1
e 9 5
e 9 6
e 9 7
e 9 8
e 10 2
e 10 5
e 10 9
e 11 2
e 11 10
e 12 2
e 12 3
e 12 4
e 12 8
e 12 10
e 13 3
e 13 4
e 13 7
e 13 9
e 13 10
e 13 12
e 14 2
e 14 3
e 14 8
e 14 9
e 14 12
e 15 1
e 15 2
e 15 5
e 15 6
e 15 7
e 15 11
e 15 14
e 16 1
e 16 5
e 16 6
e 16 7
e 16 8
e 16 12
e 17 3
e 17 4
e 17 5
e 17 6
e 17 9
e 17 10
e 17 13
e 17 16
e 18 2
e 18 3
e 18 6
e 18 7
e 18 8
e 18 9
e 18 10
e 18 11
e 18 12
e 18 13
e 19 7
e 19 8
e 19 10
e 19 12
e 19 16
e 20 2
e 20 6
e 20 7
e 20 11
e 20 13
e 20 14
e 20 15
e 20 16
e 20 17
e 20 19
e 21 6
e 21 7
e 21 8
e 21 9
e 21 14
e 21 15
e 21 17
e 21 19
e 21 20
e 22 2
e 22 4
e 22 5
e 22 7
e 22 8
e 22 11
e 22 15
e 22 16
e 22 17
e 22 19
e 22 20
e 22 21
e 23 1
e 23 2
e 23 4
e 23 5
e 23 6
e 23 9
e 23 11
e 23 13
e 23 14
e 23 16
e 23 19
e 23 21
e 24 1
e 24 2
e 24 6
e 24 7
e 24 9
e 24 11
e 24 14
e 24 15
e 24 16
e 24 17
e 24 18
e 24 19
e 24 20
e 24 21
e 24 23
e 25 3
e 25 4
e 25 5
e 25 6
e 25 8
e 25 9
e 25 10
e 25 11
e 25 12
e 25 14
e 25 15
e 25 18
e 25 19
e 25 20
e 25 21
e 26 9
e 26 10
e 26 11
e 26 13
e 26 14
e 26 16
e 26 19
e 26 21
e 26 23
e 26 25
e 27 7
e 27 8
e 27 9
e 27 13
e 27 14
e 27 16
e 27 17
e 27 18
e 27 22
e 27 23
e 27 24
e 28 1
e 28 3
e 28 8
e 28 9
e 28 10
e 28 11
e 28 12
e 28 13
e 28 18
e 28 19
e 28 20
e 28 21
e 28 27
e 29 2
e 29 5
e 29 6
e 29 7
e 29 9
e 29 10
e 29 13
e 29 14
e 29 15
e 29 17
e 29 21
e 29 22
e 29 24
e 29 25
e 29 26
e 30 1
e 30 3
e 30 4
e 30 5
e 30 6
e 30 8
e 30 9
e 30 13
e 30 16
e 30 20
e 30 26
e 30 27
e 31 1
e 31 2
e 31 3
e 31 9
e 31 10
e 31 11
e 31 12
e 31 13
e 31 15
e 31 16
e 31 17
e 31 19
e 31 20
e 31 21
e 31 26
e 31 28
e 31 29
e 31 30
e 32 1
e 32 2
e 32 5
e 32 6
e 32 7
e 32 10
e 32 12
e 32 14
e 32 15
e 32 18
e 32 19
e 32 20
e 32 21
e 32 22
e 32 24
e 32 26
e 32 27
e 32 28
e 32 30
e 32 31
e 33 1
e 33 2
e 33 4
e 33 5
e 33 6
e 33 11
e 33 12
e 33 13
e 33 18
e 33 20
e 33 21
e 33 22
e 33 26
e 33 27
e 33 29
e 34 2
e 34 3
e 34 4
e 34 5
e 34 7
e 34 9
e 34 10
e 34 11
e 34 13
e 34 14
e 34 15
e 34 16
e 34 18
e 34 19
e 34 20
e 34 21
e 34 22
e 34 23
e 34 27
e 34 28
e 34 31
e 35 4
e 35 5
e 35 6
e 35 8
e 35 9
e 35 11
e 35 12
e 35 13
e 35 14
e 35 15
e 35 16
e 35 18
e 35 19
e 35 23
e 35 24
e 35 25
e 35 27
e 35 28
e 35 30
e 36 1
e 36 2
e 36 3
e 36 5
e 36 7
e 36 12
e 36 14
e 36 15
e 36 16
e 36 17
e 36 18
e 36 20
e 36 21
e 36 23
e 36 24
e 36 26
e 36 28
e 36 32
e 36 34
e 36 35
e 37 1
e 37 2
e 37 4
e 37 5
e 37 6
e 37 7
e 37 11
e 37 12
e 37 13
e 37 15
e 37 16
e 37 18
e 37 19
e 37 22
e 37 25
e 37 27
e 37 28
e 37 29
e 37 33
e 37 34
e 38 4
e 38 6
e 38 7
e 38 11
e 38 13
e 38 14
e 38 15
e 38 16
e 38 17
e 38 19
e 38 20
e 38 22
e 38 26
e 38 27
e 38 28
e 38 29
e 38 34
e 38 35
e 38 37
e 39 1
e 39 3
e 39 5
e 39 6
e 39 7
e 39 10
e 39 12
e 39 13
e 39 14
e 39 16
e 39 17
e 39 18
e 39 19
e 39 23
e 39 24
e 39 25
e 39 26
e 39 28
e 39 30
e 39 31
e 39 32
e 39 36
e 39 37
e 39 38
e 40 2
e 40 4
e 40 14
e 40 15
e 40 16
e 40 19
e 40 21
e 40 22
e 40 23
e 40 24
e 40 28
e 40 29
e 40 31
e 40 32
e 40 33
e 40 35
e 40 36
e 41 2
e 41 5
e 41 11
e 41 14
e 41 16
e 41 18
e 41 19
e 41 21
e 41 22
e 41 23
e 41 25
e 41 26
e 41 27
e 41 32
e 41 33
e 41 34
e 41 35
e 41 38
e 41 39
e 41 40
e 42 1
e 42 3
e 42 5
e 42 6
e 42 8
e 42 10
e 42 11
e 42 14
e 42 17
e 42 18
e 42 19
e 42 20
e 42 23
e 42 24
e 42 25
e 42 26
e 42 28
e 42 29
e 42 31
e 42 33
e 42 35
e 42 38
e 42 39
e 42 40
e 42 41
e 43 1
e 43 3
e 43 5
e 43 7
e 43 11
e 43 12
e 43 16
e 43 18
e 43 19
e 43 23
e 43 24
e 43 25
e 43 26
e 43 27
e 43 28
e 43 29
e 43 32
e 43 33
e 43 34
e 43 39
e 43 40
e 43 41
e 44 3
e 44 4
e 44 5
e 44 6
e 44 8
e 44 10
e 44 11
e 44 12
e 44 13
e 44 14
e 44 15
e 44 17
e 44 19
e 44 21
e 44 23
e 44 24
e 44 26
e 44 30
e 44 32
e 44 33
e 44 34
e 44 37
e 44 38
e 44 39
e 44 40
e 44 42
e 45 1
e 45 5
e 45 12
e 45 15
e 45 16
e 45 20
e 45 22
e 45 23
e 45 30
e 45 33
e 45 34
e 45 35
e 45 36
e 45 37
e 45 43
e 46 1
e 46 2
e 46 3
e 46 6
e 46 7
e 46 8
e 46 10
e 46 11
e 46 14
e 46 16
e 46 18
e 46 19
e 46 21
e 46 22
e 46 23
e 46 24
e 46 26
e 46 27
e 46 30
e 46 32
e 46 33
e 46 34
e 46 36
e 46 41
e 46 43
e 46 44
e 46 45
e 47 1
e 47 2
e 47 3
e 47 4
e 47 8
e 47 10
e 47 14
e 47 16
e 47 18
e 47 19
e 47 20
e 47 22
e 47 23
e 47 24
e 47 25
e 47 26
e 47 29
e 47 32
e 47 33
e 47 35
e 47 37
e 47 40
e 47 41
e 47 42
e 47 45
e 48 1
e 48 5
e 48 7
e 48 8
e 48 9
e 48 10
e 48 11
e 48 13
e 48 16
e 48 19
e 48 20
e 48 21
e 48 22
e 48 25
e 48 26
e 48 27
e 48 31
e 48 32
e 48 33
e 48 36
e 48 39
e 48 46
e 48 47
e 49 1
e 49 2
e 49 4
e 49 6
e 49 8
e 49 9
e 49 11
e 49 19
e 49 24
e 49 26
e 49 30
e 49 31
e 49 32
e 49 34
e 49 36
e 49 37
e 49 43
e 49 47
e 49 48
e 50 4
e 50 7
e 50 8
e 50 9
e 50 10
e 50 12
e 50 14
e 50 15
e 50 16
e 50 17
e 50 19
e 50 20
e 50 24
e 50 25
e 50 29
e 50 30
e 50 33
e 50 34
e 50 39
e 50 40
e 50 41
e 50 42
e 50 43
e 50 44
e 50 45
e 50 46
e 50 48
e 51 1
e 51 2
e 51 3
e 51 4
e 51 5
e 51 7
e 51 8
e 51 15
e 51 16
e 51 17
e 51 18
e 51 19
e 51 20
e 51 21
e 51 22
e 51 23
e 51 24
e 51 27
e 51 30
e 51 31
e 51 34
e 51 35
e 51 38
e 51 39
e 51 43
e 51 47
e 51 48
e 52 1
e 52 2
e 52 7
e 52 9
e 52 10
e 52 12
e 52 13
e 52 16
e 52 19
e 52 22
e 52 23
e 52 26
e 52 29
e 52 31
e 52 34
e 52 35
e 52 36
e 52 39
e 52 40
e 52 41
e 52 42
e 52 45
e 52 47
e 53 3
e 53 4
e 53 5
e 53 8
e 53 9
e 53 10
e 53 11
e 53 13
e 53 14
e 53 17
e 53 18
e 53 21
e 53 23
e 53 24
e 53 29
e 53 30
e 53 32
e 53 35
e 53 37
e 53 39
e 53 40
e 53 41
e 53 42
e 53 43
e 53 45
e 53 46
e 53 49
e 53 51
e 53 52
e 54 1
e 54 3
e 54 5
e 54 7
e 54 9
e 54 10
e 54 12
e 54 14
e 54 16
e 54 17
e 54 19
e 54 21
e 54 22
e 54 23
e 54 24
e 54 25
e 54 27
e 54 31
e 54 32
e 54 33
e 54 34
e 54 38
e 54 40
e 54 41
e 54 42
e 54 46
e 54 47
e 54 50
e 54 51
e 54 53
e 55 1
e 55 2
e 55 4
e 55 5
e 55 7
e 55 8
e 55 9
e 55 10
e 55 13
e 55 15
e 55 19
e 55 21
e 55 22
e 55 25
e 55 26
e 55 27
e 55 28
e 55 31
e 55 32
e 55 38
e 55 40
e 55 43
e 55 44
e 55 45
e 55 46
e 55 54
e 56 5
e 56 7
e 56 8
e 56 12
e 56 13
e 56 19
e 56 20
e 56 22
e 56 23
e 56 26
e 56 28
e 56 29
e 56 34
e 56 36
e 56 38
e 56 40
e 56 41
e 56 43
e 56 44
e 56 45
e 56 50
e 56 51
e 56 55
e 57 2
e 57 4
e 57 5
e 57 6
e 57 7
e 57 8
e 57 9
e 57 11
e 57 15
e 57 16
e 57 18
e 57 22
e 57 25
e 57 27
e 57 28
e 57 29
e 57 30
e 57 31
e 57 34
e 57 35
e 57 36
e 57 37
e 57 40
e 57 41
e 57 44
e 57 45
e 57 47
e 57 48
e 57 49
e 57 51
e 57 52
e 57 53
e 57 54
e 58 4
e 58 5
e 58 9
e 58 10
e 58 12
e 58 15
e 58 20
e 58 22
e 58 27
e 58 28
e 58 31
e 58 35
e 58 37
e 58 38
e 58 39
e 58 42
e 58 43
e 58 45
e 58 46
e 58 48
e 58 49
e 58 51
e 58 54
e 59 1
e 59 3
e 59 4
e 59 7
e 59 9
e 59 10
e 59 12
e 59 14
e 59 15
e 59 17
e 59 18
e 59 24
e 59 31
e 59 32
e 59 34
e 59 35
e 59 36
e 59 38
e 59 43
e 59 44
e 59 46
e 59 48
e 59 50
e 59 54
e 59 55
e 60 3
e 60 4
e 60 5
e 60 6
e 60 7
e 60 12
e 60 14
e 60 15
e 60 19
e 60 20
e 60 21
e 60 22
e 60 24
e 60 25
e 60 27
e 60 28
e 60 29
e 60 30
e 60 32
e 60 34
e 60 36
e 60 43
e 60 46
e 60 47
e 60 48
e 60 50
e 60 52
e 60 53
e 60 54
e 60 57
e 60 58
e 60 59
e 61 1
e 61 3
e 61 6
e 61 9
e 61 10
e 61 12
e 61 13
e 61 14
e 61 15
e 61 16
e 61 17
e 61 18
e 61 19
e 61 23
e 61 24
e 61 25
e 61 28
e 61 30
e 61 32
e 61 34
e 61 38
e 61 39
e 61 40
e 61 46
e 61 47
e 61 49
e 61 53
e 61 54
e 61 55
e 61 56
e 61 57
e 61 58
e 61 59
e 61 60
e 62 1
e 62 5
e 62 6
e 62 7
e 62 8
e 62 9
e 62 10
e 62 11
e 62 12
e 62 13
e 62 14
e 62 15
e 62 16
e 62 17
e 62 18
e 62 24
e 62 25
e 62 26
e 62 27
e 62 28
e 62 29
e 62 30
e 62 31
e 62 34
e 62 35
e 62 37
e 62 38
e 62 39
e 62 42
e 62 45
e 62 47
e 62 49
e 62 50
e 62 51
e 62 52
e 62 53
e 62 54
e 62 55
e 62 56
e 63 5
e 63 7
e 63 8
e 63 13
e 63 14
e 63 16
e 63 18
e 63 19
e 63 21
e 63 23
e 63 24
e 63 27
e 63 29
e 63 31
e 63 32
e 63 34
e 63 37
e 63 39
e 63 40
e 63 41
e 63 42
e 63 45
e 63 48
e 63 49
e 63 58
e 63 59
e 64 1
e 64 3
e 64 5
e 64 10
e 64 14
e 64 15
e 64 17
e 64 18
e 64 20
e 64 21
e 64 24
e 64 25
e 64 27
e 64 29
e 64 34
e 64 35
e 64 37
e 64 39
e 64 40
